(set-logic QF_SLIA)
(declare-fun var0 () String)
(declare-fun var1 () String)
(declare-fun var2 () String)
(declare-fun var3 () String)
(declare-fun var4 () String)
(declare-fun var5 () String)
(declare-fun var6 () String)
(declare-fun var7 () String)
(declare-fun var8 () String)
(declare-fun var9 () String)
(declare-fun var10 () String)
(declare-fun var11 () String)
(declare-fun var12 () String)
(declare-fun var13 () String)
(declare-fun var14 () String)
(declare-fun var15 () String)
(declare-fun var16 () String)
(declare-fun var17 () String)
(declare-fun var18 () String)
(declare-fun var19 () String)
(declare-fun var20 () Int)
(declare-fun var21 () Int)
(declare-fun var22 () Int)
(declare-fun var23 () Int)
(declare-fun var24 () Bool)
(declare-fun var25 () Bool)
(assert (str.prefixof (str.replace var15 var4 "OXvRoqH+-e") (str.substr var10 var20 var22)))
(assert (str.contains (str.replace (str.substr var10 var23 var21) (str.replace var5 var13 var10) (str.substr var15 var23 var20)) (str.substr (str.at var4 var23) (str.indexof var17 var2 var21) (str.len "q+Mgd+r+>6"))))
(assert (<= (str.len var3) (str.indexof var0 var0 var21)))
(assert (>= (str.indexof (str.replace "3l>DPVW&D6" var0 var0) (str.replace var1 var13 var1) (str.len "m<p4$(,6X^")) (str.len var15)))
(assert (str.prefixof var15 var9))
(assert (str.prefixof (str.replace var17 var5 var16) (str.substr var10 var23 var22)))
(assert (str.suffixof (str.replace var19 var4 var7) (str.replace var6 var18 var8)))
(assert (str.contains (str.replace var11 var0 var16) (str.replace var16 var7 var4)))
(assert (str.contains (str.replace var8 "Fe5b%{4fim" var2) (str.replace (str.at var6 var21) (str.at var18 var22) (str.replace var4 var0 var17))))
(assert (> (str.indexof ",<sWDCxG%4" var10 var22) (str.len (str.at var16 var23))))
(check-sat)